JulietBench/Juliet_Based_Patch_Bench/linux/CWE-189-Numeric-Errors/CVE_2014_4656_883a1d49f0d77d30012f114b2e19fc141beb3e8e/Resultsnd_ctl_add_Snippet_patch1EQ.smt2
; benchmark generated from python API
(set-info :status unknown)
(declare-fun rdx () (_ BitVec 64))
(declare-fun rsi () (_ BitVec 64))
(declare-fun R () (_ BitVec 32))
(declare-fun rdi () (_ BitVec 64))
(assert
 (let ((?x10 ((_ extract 31 0) rdx)))
 (let ((?x8 ((_ extract 31 0) rsi)))
 (let ((?x16 (bvadd ?x8 ?x10)))
 (let (($x73 (= R ?x16)))
 (let ((?x19 (bvnot ?x8)))
 (let ((?x6 ((_ extract 31 0) rdi)))
 (let (($x24 (bvule ?x6 ?x19)))
 (let (($x87 (and $x24 $x73)))
 (let (($x85 (= (_ bv4294967274 32) R)))
 (let (($x47 (bvugt ?x6 ?x19)))
 (let (($x86 (and $x47 $x85)))
 (let (($x88 (or $x86 $x87)))
 (and $x73 $x88))))))))))))))
(check-sat)
